assets/logs/8_10x10_clingo/8_10x10_clingo.solution.log

-----------------------------------------
| 91|  1|  6| 61| 38| 56| 62| 57| 66| 72|
-----------------------------------------
|  4| 63| 89| 46|  8| 59| 36| 70| 60| 55|
-----------------------------------------
| 87| 48| 83| 32| 54| 40| 58| 64| 74| 68|
-----------------------------------------
| 65|  2| 52| 10| 44| 34|  1|  3| 53|  7|
-----------------------------------------
| 50| 85| 14| 81| 30| 80| 42|  9| 47| 76|
-----------------------------------------
| 16| 67| 28| 82| 12|  1| 45| 78|  5| 51|
-----------------------------------------
| 26| 84| 18| 92| 79| 21| 11| 49| 43|  1|
-----------------------------------------
|  1| 75| 69| 86| 20| 90| 29| 15| 37|  0|
-----------------------------------------
| 71| 24|  1| 77| 23| 13| 19| 33| 27| 41|
-----------------------------------------
|  0|  0| 73| 22| 88| 31| 25| 39| 17| 35|
-----------------------------------------

| n = 10 | k = 6 | coverage = 97, 97.0%
 Time 300.001
 Name 8_10x10_clingo

