assets/logs/8_10x10_clingo/8_10x10_clingo.log
clingo version 5.4.0
Reading from ...ts/logs/8_10x10_clingo/knights_tour.lp ...
Solving...
Answer: 1
occ(1,6,6) occ(1,7,10) occ(1,9,3) occ(1,4,7) occ(1,8,1) occ(1,1,2) occ(2,4,2) occ(3,4,8) coverage(6)
Optimization: -6
Answer: 2
occ(1,6,6) occ(1,7,10) occ(1,9,3) occ(1,4,7) occ(1,8,1) occ(1,1,2) occ(2,4,2) occ(3,4,8) coverage(7) occ(6,1,3) occ(4,2,1)
Optimization: -7
Answer: 3
occ(1,6,6) occ(1,7,10) occ(1,9,3) occ(1,4,7) occ(1,8,1) occ(1,1,2) occ(2,4,2) occ(3,4,8) coverage(8) occ(6,1,3) occ(7,1,9) occ(4,2,1) occ(5,3,10)
Optimization: -8
Answer: 4
occ(1,6,6) occ(1,7,10) occ(1,9,3) occ(1,4,7) occ(1,8,1) occ(1,1,2) occ(2,4,2) occ(3,4,8) coverage(9) occ(6,1,3) occ(7,1,9) occ(4,2,1) occ(5,3,10) occ(8,3,2)
Optimization: -9
Answer: 5
occ(1,6,6) occ(1,7,10) occ(1,9,3) occ(1,4,7) occ(1,8,1) occ(1,1,2) occ(2,4,2) occ(3,4,8) coverage(10) occ(6,1,3) occ(7,1,9) occ(4,2,1) occ(5,2,7) occ(8,3,2) occ(9,3,10)
Optimization: -10
Answer: 6
occ(1,6,6) occ(1,7,10) occ(1,9,3) occ(1,4,7) occ(1,8,1) occ(1,1,2) occ(2,4,2) occ(3,4,8) coverage(46) occ(11,1,5) occ(14,1,7) occ(15,1,9) occ(24,1,4) occ(32,1,8) occ(37,1,6) occ(12,2,9) occ(13,2,7) occ(16,2,5) occ(22,2,2) occ(26,2,6) occ(30,2,10) occ(35,2,8) occ(39,2,4) occ(9,3,6) occ(17,3,10) occ(18,3,3) occ(28,3,8) occ(34,3,9) occ(41,3,2) occ(6,4,6) occ(10,4,10) occ(20,4,1) occ(33,4,9) occ(4,5,4) occ(7,5,5) occ(8,5,8) occ(19,5,9) occ(36,5,10) occ(43,5,1) occ(67,5,7) occ(79,5,3) occ(5,6,7) occ(31,6,10) occ(45,6,3) occ(69,6,9) occ(81,6,5) occ(21,7,8) occ(38,7,9) occ(47,7,1) occ(65,7,6) occ(71,7,7) occ(77,7,2) occ(23,8,10) occ(29,8,9) occ(42,8,8) occ(53,8,5) occ(59,8,2) occ(75,8,4) occ(83,8,6) occ(25,9,8) occ(40,9,10) occ(49,9,2) occ(57,9,4) occ(63,9,5) occ(73,9,6) occ(87,9,7) occ(27,10,10) occ(44,10,7) occ(51,10,4) occ(55,10,6) occ(61,10,3) occ(85,10,5) occ(89,10,9)
Optimization: -46
Answer: 7
occ(1,6,6) occ(1,7,10) occ(1,9,3) occ(1,4,7) occ(1,8,1) occ(1,1,2) occ(2,4,2) occ(3,4,8) coverage(48) occ(11,1,5) occ(14,1,7) occ(15,1,9) occ(24,1,4) occ(32,1,8) occ(37,1,6) occ(12,2,9) occ(13,2,7) occ(16,2,5) occ(22,2,2) occ(26,2,6) occ(30,2,10) occ(35,2,8) occ(39,2,4) occ(9,3,6) occ(17,3,10) occ(18,3,3) occ(28,3,8) occ(34,3,9) occ(41,3,2) occ(6,4,6) occ(10,4,10) occ(20,4,1) occ(33,4,9) occ(4,5,4) occ(7,5,5) occ(8,5,8) occ(19,5,9) occ(36,5,10) occ(43,5,1) occ(67,5,7) occ(79,5,3) occ(5,6,7) occ(31,6,10) occ(45,6,3) occ(69,6,9) occ(81,6,5) occ(21,7,8) occ(38,7,9) occ(47,7,1) occ(65,7,6) occ(71,7,7) occ(77,7,2) occ(23,8,10) occ(29,8,9) occ(42,8,8) occ(53,8,5) occ(59,8,2) occ(75,8,4) occ(83,8,6) occ(25,9,8) occ(40,9,10) occ(46,9,9) occ(49,9,2) occ(57,9,4) occ(63,9,5) occ(73,9,6) occ(87,9,7) occ(27,10,10) occ(44,10,7) occ(51,10,4) occ(55,10,6) occ(61,10,3) occ(85,10,5) occ(89,10,9)
Optimization: -48
Answer: 8
occ(1,6,6) occ(1,7,10) occ(1,9,3) occ(1,4,7) occ(1,8,1) occ(1,1,2) occ(2,4,2) occ(3,4,8) coverage(50) occ(11,1,5) occ(14,1,7) occ(15,1,9) occ(24,1,4) occ(32,1,8) occ(37,1,6) occ(12,2,9) occ(13,2,7) occ(16,2,5) occ(22,2,2) occ(26,2,6) occ(30,2,10) occ(35,2,8) occ(39,2,4) occ(9,3,6) occ(17,3,10) occ(18,3,3) occ(28,3,8) occ(34,3,9) occ(41,3,2) occ(6,4,6) occ(10,4,10) occ(20,4,1) occ(33,4,9) occ(4,5,4) occ(7,5,5) occ(8,5,8) occ(19,5,9) occ(36,5,10) occ(43,5,1) occ(67,5,7) occ(79,5,3) occ(5,6,7) occ(31,6,10) occ(45,6,3) occ(69,6,9) occ(81,6,5) occ(21,7,8) occ(38,7,9) occ(47,7,1) occ(65,7,6) occ(71,7,7) occ(77,7,2) occ(23,8,10) occ(29,8,9) occ(42,8,8) occ(48,8,7) occ(53,8,5) occ(59,8,2) occ(75,8,4) occ(83,8,6) occ(25,9,8) occ(40,9,10) occ(46,9,9) occ(49,9,2) occ(57,9,4) occ(63,9,5) occ(73,9,6) occ(87,9,7) occ(27,10,10) occ(44,10,7) occ(51,10,4) occ(55,10,6) occ(61,10,3) occ(85,10,5) occ(89,10,9)
Optimization: -50
Answer: 9
occ(1,6,6) occ(1,7,10) occ(1,9,3) occ(1,4,7) occ(1,8,1) occ(1,1,2) occ(2,4,2) occ(3,4,8) coverage(52) occ(11,1,5) occ(14,1,7) occ(15,1,9) occ(24,1,4) occ(32,1,8) occ(37,1,6) occ(12,2,9) occ(13,2,7) occ(16,2,5) occ(22,2,2) occ(26,2,6) occ(30,2,10) occ(35,2,8) occ(39,2,4) occ(9,3,6) occ(17,3,10) occ(18,3,3) occ(28,3,8) occ(34,3,9) occ(41,3,2) occ(6,4,6) occ(10,4,10) occ(20,4,1) occ(33,4,9) occ(4,5,4) occ(7,5,5) occ(8,5,8) occ(19,5,9) occ(36,5,10) occ(43,5,1) occ(67,5,7) occ(79,5,3) occ(5,6,7) occ(31,6,10) occ(45,6,3) occ(69,6,9) occ(81,6,5) occ(21,7,8) occ(38,7,9) occ(47,7,1) occ(65,7,6) occ(71,7,7) occ(77,7,2) occ(23,8,10) occ(29,8,9) occ(42,8,8) occ(48,8,7) occ(53,8,5) occ(59,8,2) occ(75,8,4) occ(83,8,6) occ(25,9,8) occ(40,9,10) occ(46,9,9) occ(49,9,2) occ(57,9,4) occ(63,9,5) occ(73,9,6) occ(87,9,7) occ(27,10,10) occ(44,10,7) occ(50,10,8) occ(51,10,4) occ(55,10,6) occ(61,10,3) occ(85,10,5) occ(89,10,9)
Optimization: -52
Answer: 10
occ(1,6,6) occ(1,7,10) occ(1,9,3) occ(1,4,7) occ(1,8,1) occ(1,1,2) occ(2,4,2) occ(3,4,8) coverage(54) occ(11,1,5) occ(14,1,7) occ(15,1,9) occ(24,1,4) occ(32,1,8) occ(37,1,6) occ(12,2,9) occ(13,2,7) occ(16,2,5) occ(22,2,2) occ(26,2,6) occ(30,2,10) occ(35,2,8) occ(39,2,4) occ(9,3,6) occ(17,3,10) occ(18,3,3) occ(28,3,8) occ(34,3,9) occ(41,3,2) occ(6,4,6) occ(10,4,10) occ(20,4,1) occ(33,4,9) occ(4,5,4) occ(7,5,5) occ(8,5,8) occ(19,5,9) occ(36,5,10) occ(43,5,1) occ(52,5,6) occ(67,5,7) occ(79,5,3) occ(5,6,7) occ(31,6,10) occ(45,6,3) occ(50,6,8) occ(69,6,9) occ(81,6,5) occ(21,7,8) occ(38,7,9) occ(47,7,1) occ(65,7,6) occ(71,7,7) occ(77,7,2) occ(23,8,10) occ(29,8,9) occ(42,8,8) occ(48,8,7) occ(53,8,5) occ(59,8,2) occ(75,8,4) occ(83,8,6) occ(25,9,8) occ(40,9,10) occ(46,9,9) occ(49,9,2) occ(57,9,4) occ(63,9,5) occ(73,9,6) occ(87,9,7) occ(27,10,10) occ(44,10,7) occ(51,10,4) occ(55,10,6) occ(61,10,3) occ(85,10,5) occ(89,10,9)
Optimization: -54
Answer: 11
occ(1,6,6) occ(1,7,10) occ(1,9,3) occ(1,4,7) occ(1,8,1) occ(1,1,2) occ(2,4,2) occ(3,4,8) coverage(56) occ(11,1,5) occ(14,1,7) occ(15,1,9) occ(24,1,4) occ(32,1,8) occ(37,1,6) occ(12,2,9) occ(13,2,7) occ(16,2,5) occ(22,2,2) occ(26,2,6) occ(30,2,10) occ(35,2,8) occ(39,2,4) occ(9,3,6) occ(17,3,10) occ(18,3,3) occ(28,3,8) occ(34,3,9) occ(41,3,2) occ(6,4,6) occ(10,4,10) occ(20,4,1) occ(33,4,9) occ(4,5,4) occ(7,5,5) occ(8,5,8) occ(19,5,9) occ(36,5,10) occ(43,5,1) occ(67,5,7) occ(79,5,3) occ(5,6,7) occ(31,6,10) occ(45,6,3) occ(69,6,9) occ(81,6,5) occ(21,7,8) occ(38,7,9) occ(47,7,1) occ(50,7,5) occ(65,7,6) occ(71,7,7) occ(77,7,2) occ(23,8,10) occ(29,8,9) occ(42,8,8) occ(48,8,7) occ(52,8,3) occ(53,8,5) occ(59,8,2) occ(75,8,4) occ(83,8,6) occ(25,9,8) occ(40,9,10) occ(46,9,9) occ(49,9,2) occ(57,9,4) occ(63,9,5) occ(73,9,6) occ(87,9,7) occ(27,10,10) occ(44,10,7) occ(51,10,4) occ(54,10,2) occ(55,10,6) occ(61,10,3) occ(85,10,5) occ(89,10,9)
Optimization: -56
Answer: 12
occ(1,6,6) occ(1,7,10) occ(1,9,3) occ(1,4,7) occ(1,8,1) occ(1,1,2) occ(2,4,2) occ(3,4,8) coverage(58) occ(11,1,5) occ(14,1,7) occ(15,1,9) occ(24,1,4) occ(32,1,8) occ(37,1,6) occ(12,2,9) occ(13,2,7) occ(16,2,5) occ(22,2,2) occ(26,2,6) occ(30,2,10) occ(35,2,8) occ(39,2,4) occ(9,3,6) occ(17,3,10) occ(18,3,3) occ(28,3,8) occ(34,3,9) occ(41,3,2) occ(6,4,6) occ(10,4,10) occ(20,4,1) occ(33,4,9) occ(4,5,4) occ(7,5,5) occ(8,5,8) occ(19,5,9) occ(36,5,10) occ(43,5,1) occ(56,5,2) occ(67,5,7) occ(79,5,3) occ(5,6,7) occ(31,6,10) occ(45,6,3) occ(54,6,4) occ(69,6,9) occ(81,6,5) occ(21,7,8) occ(38,7,9) occ(47,7,1) occ(50,7,5) occ(65,7,6) occ(71,7,7) occ(77,7,2) occ(23,8,10) occ(29,8,9) occ(42,8,8) occ(48,8,7) occ(52,8,3) occ(53,8,5) occ(59,8,2) occ(75,8,4) occ(83,8,6) occ(25,9,8) occ(40,9,10) occ(46,9,9) occ(49,9,2) occ(57,9,4) occ(63,9,5) occ(73,9,6) occ(87,9,7) occ(27,10,10) occ(44,10,7) occ(51,10,4) occ(55,10,6) occ(61,10,3) occ(85,10,5) occ(89,10,9)
Optimization: -58
Answer: 13
occ(1,6,6) occ(1,7,10) occ(1,9,3) occ(1,4,7) occ(1,8,1) occ(1,1,2) occ(2,4,2) occ(3,4,8) coverage(60) occ(11,1,5) occ(14,1,7) occ(15,1,9) occ(24,1,4) occ(32,1,8) occ(37,1,6) occ(12,2,9) occ(13,2,7) occ(16,2,5) occ(22,2,2) occ(26,2,6) occ(30,2,10) occ(35,2,8) occ(39,2,4) occ(9,3,6) occ(17,3,10) occ(18,3,3) occ(28,3,8) occ(34,3,9) occ(41,3,2) occ(58,3,1) occ(6,4,6) occ(10,4,10) occ(20,4,1) occ(33,4,9) occ(56,4,3) occ(4,5,4) occ(7,5,5) occ(8,5,8) occ(19,5,9) occ(36,5,10) occ(43,5,1) occ(67,5,7) occ(79,5,3) occ(5,6,7) occ(31,6,10) occ(45,6,3) occ(54,6,2) occ(69,6,9) occ(81,6,5) occ(21,7,8) occ(38,7,9) occ(47,7,1) occ(50,7,5) occ(65,7,6) occ(71,7,7) occ(77,7,2) occ(23,8,10) occ(29,8,9) occ(42,8,8) occ(48,8,7) occ(52,8,3) occ(53,8,5) occ(59,8,2) occ(75,8,4) occ(83,8,6) occ(25,9,8) occ(40,9,10) occ(46,9,9) occ(49,9,2) occ(57,9,4) occ(63,9,5) occ(73,9,6) occ(87,9,7) occ(27,10,10) occ(44,10,7) occ(51,10,4) occ(55,10,6) occ(61,10,3) occ(85,10,5) occ(89,10,9)
Optimization: -60
Answer: 14
occ(1,6,6) occ(1,7,10) occ(1,9,3) occ(1,4,7) occ(1,8,1) occ(1,1,2) occ(2,4,2) occ(3,4,8) coverage(62) occ(11,1,5) occ(14,1,7) occ(15,1,9) occ(24,1,4) occ(32,1,8) occ(37,1,6) occ(12,2,9) occ(13,2,7) occ(16,2,5) occ(22,2,2) occ(26,2,6) occ(30,2,10) occ(35,2,8) occ(39,2,4) occ(60,2,3) occ(9,3,6) occ(17,3,10) occ(18,3,3) occ(28,3,8) occ(34,3,9) occ(41,3,2) occ(58,3,1) occ(6,4,6) occ(10,4,10) occ(20,4,1) occ(33,4,9) occ(4,5,4) occ(7,5,5) occ(8,5,8) occ(19,5,9) occ(36,5,10) occ(43,5,1) occ(56,5,2) occ(67,5,7) occ(79,5,3) occ(5,6,7) occ(31,6,10) occ(45,6,3) occ(54,6,4) occ(69,6,9) occ(81,6,5) occ(21,7,8) occ(38,7,9) occ(47,7,1) occ(50,7,5) occ(65,7,6) occ(71,7,7) occ(77,7,2) occ(23,8,10) occ(29,8,9) occ(42,8,8) occ(48,8,7) occ(52,8,3) occ(53,8,5) occ(59,8,2) occ(75,8,4) occ(83,8,6) occ(25,9,8) occ(40,9,10) occ(46,9,9) occ(49,9,2) occ(57,9,4) occ(63,9,5) occ(73,9,6) occ(87,9,7) occ(27,10,10) occ(44,10,7) occ(51,10,4) occ(55,10,6) occ(61,10,3) occ(85,10,5) occ(89,10,9)
Optimization: -62
Answer: 15
occ(1,6,6) occ(1,7,10) occ(1,9,3) occ(1,4,7) occ(1,8,1) occ(1,1,2) occ(2,4,2) occ(3,4,8) coverage(64) occ(11,1,5) occ(14,1,7) occ(15,1,9) occ(24,1,4) occ(32,1,8) occ(37,1,6) occ(62,1,1) occ(12,2,9) occ(13,2,7) occ(16,2,5) occ(22,2,2) occ(26,2,6) occ(30,2,10) occ(35,2,8) occ(39,2,4) occ(60,2,3) occ(9,3,6) occ(17,3,10) occ(18,3,3) occ(28,3,8) occ(34,3,9) occ(41,3,2) occ(58,3,1) occ(6,4,6) occ(10,4,10) occ(20,4,1) occ(33,4,9) occ(56,4,3) occ(4,5,4) occ(7,5,5) occ(8,5,8) occ(19,5,9) occ(36,5,10) occ(43,5,1) occ(67,5,7) occ(79,5,3) occ(5,6,7) occ(31,6,10) occ(45,6,3) occ(54,6,2) occ(69,6,9) occ(81,6,5) occ(21,7,8) occ(38,7,9) occ(47,7,1) occ(50,7,5) occ(65,7,6) occ(71,7,7) occ(77,7,2) occ(23,8,10) occ(29,8,9) occ(42,8,8) occ(48,8,7) occ(52,8,3) occ(53,8,5) occ(59,8,2) occ(75,8,4) occ(83,8,6) occ(25,9,8) occ(40,9,10) occ(46,9,9) occ(49,9,2) occ(57,9,4) occ(63,9,5) occ(73,9,6) occ(87,9,7) occ(27,10,10) occ(44,10,7) occ(51,10,4) occ(55,10,6) occ(61,10,3) occ(85,10,5) occ(89,10,9)
Optimization: -64
Answer: 16
occ(1,6,6) occ(1,7,10) occ(1,9,3) occ(1,4,7) occ(1,8,1) occ(1,1,2) occ(2,4,2) occ(3,4,8) coverage(66) occ(11,1,5) occ(14,1,7) occ(15,1,9) occ(24,1,4) occ(32,1,8) occ(37,1,6) occ(12,2,9) occ(13,2,7) occ(16,2,5) occ(22,2,2) occ(26,2,6) occ(30,2,10) occ(35,2,8) occ(39,2,4) occ(9,3,6) occ(17,3,10) occ(18,3,3) occ(28,3,8) occ(34,3,9) occ(41,3,2) occ(58,3,1) occ(6,4,6) occ(10,4,10) occ(20,4,1) occ(33,4,9) occ(60,4,3) occ(4,5,4) occ(7,5,5) occ(8,5,8) occ(19,5,9) occ(36,5,10) occ(43,5,1) occ(56,5,2) occ(67,5,7) occ(79,5,3) occ(5,6,7) occ(31,6,10) occ(45,6,3) occ(54,6,4) occ(62,6,2) occ(69,6,9) occ(81,6,5) occ(21,7,8) occ(38,7,9) occ(47,7,1) occ(50,7,5) occ(64,7,4) occ(65,7,6) occ(71,7,7) occ(77,7,2) occ(23,8,10) occ(29,8,9) occ(42,8,8) occ(48,8,7) occ(52,8,3) occ(53,8,5) occ(59,8,2) occ(75,8,4) occ(83,8,6) occ(25,9,8) occ(40,9,10) occ(46,9,9) occ(49,9,2) occ(57,9,4) occ(63,9,5) occ(73,9,6) occ(87,9,7) occ(27,10,10) occ(44,10,7) occ(51,10,4) occ(55,10,6) occ(61,10,3) occ(85,10,5) occ(89,10,9)
Optimization: -66
Answer: 17
occ(1,6,6) occ(1,7,10) occ(1,9,3) occ(1,4,7) occ(1,8,1) occ(1,1,2) occ(2,4,2) occ(3,4,8) coverage(68) occ(11,1,5) occ(14,1,7) occ(15,1,9) occ(24,1,4) occ(32,1,8) occ(37,1,6) occ(12,2,9) occ(13,2,7) occ(16,2,5) occ(22,2,2) occ(26,2,6) occ(30,2,10) occ(35,2,8) occ(39,2,4) occ(60,2,3) occ(4,3,4) occ(9,3,6) occ(17,3,10) occ(18,3,3) occ(28,3,8) occ(34,3,9) occ(41,3,2) occ(54,3,5) occ(62,3,1) occ(6,4,6) occ(10,4,10) occ(20,4,1) occ(33,4,9) occ(58,4,4) occ(7,5,5) occ(8,5,8) occ(19,5,9) occ(36,5,10) occ(43,5,1) occ(52,5,4) occ(56,5,6) occ(64,5,2) occ(67,5,7) occ(79,5,3) occ(5,6,7) occ(31,6,10) occ(45,6,3) occ(66,6,4) occ(69,6,9) occ(81,6,5) occ(21,7,8) occ(38,7,9) occ(47,7,1) occ(50,7,5) occ(65,7,6) occ(71,7,7) occ(77,7,2) occ(23,8,10) occ(29,8,9) occ(42,8,8) occ(48,8,7) occ(53,8,5) occ(59,8,2) occ(75,8,4) occ(83,8,6) occ(25,9,8) occ(40,9,10) occ(46,9,9) occ(49,9,2) occ(57,9,4) occ(63,9,5) occ(73,9,6) occ(87,9,7) occ(27,10,10) occ(44,10,7) occ(51,10,4) occ(55,10,6) occ(61,10,3) occ(85,10,5) occ(89,10,9)
Optimization: -68
Answer: 18
occ(1,6,6) occ(1,7,10) occ(1,9,3) occ(1,4,7) occ(1,8,1) occ(1,1,2) occ(2,4,2) occ(3,4,8) coverage(70) occ(11,1,5) occ(14,1,7) occ(15,1,9) occ(24,1,4) occ(32,1,8) occ(37,1,6) occ(12,2,9) occ(13,2,7) occ(16,2,5) occ(22,2,2) occ(26,2,6) occ(30,2,10) occ(35,2,8) occ(39,2,4) occ(60,2,3) occ(9,3,6) occ(17,3,10) occ(18,3,3) occ(28,3,8) occ(34,3,9) occ(41,3,2) occ(62,3,1) occ(6,4,6) occ(10,4,10) occ(20,4,1) occ(33,4,9) occ(58,4,4) occ(4,5,4) occ(7,5,5) occ(8,5,8) occ(19,5,9) occ(36,5,10) occ(43,5,1) occ(56,5,6) occ(64,5,2) occ(67,5,7) occ(79,5,3) occ(5,6,7) occ(31,6,10) occ(45,6,3) occ(54,6,4) occ(68,6,1) occ(69,6,9) occ(81,6,5) occ(21,7,8) occ(38,7,9) occ(47,7,1) occ(50,7,5) occ(65,7,6) occ(66,7,3) occ(71,7,7) occ(77,7,2) occ(23,8,10) occ(29,8,9) occ(42,8,8) occ(48,8,7) occ(52,8,3) occ(53,8,5) occ(59,8,2) occ(75,8,4) occ(83,8,6) occ(25,9,8) occ(40,9,10) occ(46,9,9) occ(49,9,2) occ(57,9,4) occ(63,9,5) occ(73,9,6) occ(87,9,7) occ(27,10,10) occ(44,10,7) occ(51,10,4) occ(55,10,6) occ(61,10,3) occ(85,10,5) occ(89,10,9)
Optimization: -70
Answer: 19
occ(1,6,6) occ(1,7,10) occ(1,9,3) occ(1,4,7) occ(1,8,1) occ(1,1,2) occ(2,4,2) occ(3,4,8) coverage(72) occ(11,1,5) occ(14,1,7) occ(15,1,9) occ(24,1,4) occ(32,1,8) occ(37,1,6) occ(12,2,9) occ(13,2,7) occ(16,2,5) occ(22,2,2) occ(26,2,6) occ(30,2,10) occ(35,2,8) occ(39,2,4) occ(60,2,3) occ(4,3,4) occ(9,3,6) occ(17,3,10) occ(18,3,3) occ(28,3,8) occ(34,3,9) occ(41,3,2) occ(62,3,1) occ(6,4,6) occ(10,4,10) occ(20,4,1) occ(33,4,9) occ(58,4,4) occ(7,5,5) occ(8,5,8) occ(19,5,9) occ(36,5,10) occ(43,5,1) occ(56,5,6) occ(64,5,2) occ(67,5,7) occ(68,5,4) occ(79,5,3) occ(5,6,7) occ(31,6,10) occ(45,6,3) occ(54,6,4) occ(69,6,9) occ(70,6,2) occ(81,6,5) occ(21,7,8) occ(38,7,9) occ(47,7,1) occ(50,7,5) occ(65,7,6) occ(66,7,3) occ(71,7,7) occ(77,7,2) occ(23,8,10) occ(29,8,9) occ(42,8,8) occ(48,8,7) occ(52,8,3) occ(53,8,5) occ(59,8,2) occ(75,8,4) occ(83,8,6) occ(25,9,8) occ(40,9,10) occ(46,9,9) occ(49,9,2) occ(57,9,4) occ(63,9,5) occ(73,9,6) occ(87,9,7) occ(27,10,10) occ(44,10,7) occ(51,10,4) occ(55,10,6) occ(61,10,3) occ(85,10,5) occ(89,10,9)
Optimization: -72
Answer: 20
occ(1,6,6) occ(1,7,10) occ(1,9,3) occ(1,4,7) occ(1,8,1) occ(1,1,2) occ(2,4,2) occ(3,4,8) coverage(74) occ(11,1,5) occ(14,1,7) occ(15,1,9) occ(24,1,4) occ(32,1,8) occ(37,1,6) occ(12,2,9) occ(13,2,7) occ(16,2,5) occ(22,2,2) occ(26,2,6) occ(30,2,10) occ(35,2,8) occ(39,2,4) occ(60,2,3) occ(4,3,4) occ(9,3,6) occ(17,3,10) occ(18,3,3) occ(28,3,8) occ(34,3,9) occ(41,3,2) occ(62,3,1) occ(6,4,6) occ(10,4,10) occ(20,4,1) occ(33,4,9) occ(58,4,4) occ(72,4,3) occ(7,5,5) occ(8,5,8) occ(19,5,9) occ(36,5,10) occ(43,5,1) occ(56,5,6) occ(64,5,2) occ(67,5,7) occ(68,5,4) occ(79,5,3) occ(5,6,7) occ(31,6,10) occ(45,6,3) occ(54,6,4) occ(69,6,9) occ(70,6,2) occ(81,6,5) occ(21,7,8) occ(38,7,9) occ(47,7,1) occ(50,7,5) occ(65,7,6) occ(66,7,3) occ(71,7,7) occ(77,7,2) occ(23,8,10) occ(29,8,9) occ(42,8,8) occ(48,8,7) occ(52,8,3) occ(53,8,5) occ(59,8,2) occ(75,8,4) occ(83,8,6) occ(25,9,8) occ(40,9,10) occ(46,9,9) occ(49,9,2) occ(57,9,4) occ(63,9,5) occ(73,9,6) occ(87,9,7) occ(27,10,10) occ(44,10,7) occ(51,10,4) occ(55,10,6) occ(61,10,3) occ(85,10,5) occ(89,10,9)
Optimization: -74
Answer: 21
occ(1,6,6) occ(1,7,10) occ(1,9,3) occ(1,4,7) occ(1,8,1) occ(1,1,2) occ(2,4,2) occ(3,4,8) coverage(76) occ(11,1,5) occ(14,1,7) occ(15,1,9) occ(24,1,4) occ(32,1,8) occ(37,1,6) occ(12,2,9) occ(13,2,7) occ(16,2,5) occ(22,2,2) occ(26,2,6) occ(30,2,10) occ(35,2,8) occ(39,2,4) occ(60,2,3) occ(4,3,4) occ(9,3,6) occ(17,3,10) occ(18,3,3) occ(28,3,8) occ(34,3,9) occ(41,3,2) occ(62,3,1) occ(74,3,5) occ(6,4,6) occ(10,4,10) occ(20,4,1) occ(33,4,9) occ(58,4,4) occ(72,4,3) occ(7,5,5) occ(8,5,8) occ(19,5,9) occ(36,5,10) occ(43,5,1) occ(56,5,6) occ(64,5,2) occ(67,5,7) occ(68,5,4) occ(79,5,3) occ(5,6,7) occ(31,6,10) occ(45,6,3) occ(54,6,4) occ(69,6,9) occ(70,6,2) occ(81,6,5) occ(21,7,8) occ(38,7,9) occ(47,7,1) occ(50,7,5) occ(65,7,6) occ(66,7,3) occ(71,7,7) occ(77,7,2) occ(23,8,10) occ(29,8,9) occ(42,8,8) occ(48,8,7) occ(52,8,3) occ(53,8,5) occ(59,8,2) occ(75,8,4) occ(83,8,6) occ(25,9,8) occ(40,9,10) occ(46,9,9) occ(49,9,2) occ(57,9,4) occ(63,9,5) occ(73,9,6) occ(87,9,7) occ(27,10,10) occ(44,10,7) occ(51,10,4) occ(55,10,6) occ(61,10,3) occ(85,10,5) occ(89,10,9)
Optimization: -76
Answer: 22
occ(1,6,6) occ(1,7,10) occ(1,9,3) occ(1,4,7) occ(1,8,1) occ(1,1,2) occ(2,4,2) occ(3,4,8) coverage(78) occ(11,1,5) occ(14,1,7) occ(15,1,9) occ(24,1,4) occ(32,1,8) occ(37,1,6) occ(12,2,9) occ(13,2,7) occ(16,2,5) occ(22,2,2) occ(26,2,6) occ(30,2,10) occ(35,2,8) occ(39,2,4) occ(60,2,3) occ(4,3,4) occ(9,3,6) occ(17,3,10) occ(18,3,3) occ(28,3,8) occ(34,3,9) occ(41,3,2) occ(62,3,1) occ(70,3,5) occ(6,4,6) occ(10,4,10) occ(20,4,1) occ(33,4,9) occ(58,4,4) occ(72,4,3) occ(7,5,5) occ(8,5,8) occ(19,5,9) occ(36,5,10) occ(43,5,1) occ(56,5,6) occ(64,5,2) occ(67,5,7) occ(68,5,4) occ(79,5,3) occ(5,6,7) occ(31,6,10) occ(45,6,3) occ(54,6,4) occ(69,6,9) occ(74,6,2) occ(81,6,5) occ(21,7,8) occ(38,7,9) occ(47,7,1) occ(50,7,5) occ(65,7,6) occ(66,7,3) occ(71,7,7) occ(76,7,4) occ(77,7,2) occ(23,8,10) occ(29,8,9) occ(42,8,8) occ(48,8,7) occ(52,8,3) occ(53,8,5) occ(59,8,2) occ(75,8,4) occ(83,8,6) occ(25,9,8) occ(40,9,10) occ(46,9,9) occ(49,9,2) occ(57,9,4) occ(63,9,5) occ(73,9,6) occ(87,9,7) occ(27,10,10) occ(44,10,7) occ(51,10,4) occ(55,10,6) occ(61,10,3) occ(85,10,5) occ(89,10,9)
Optimization: -78
Answer: 23
occ(1,6,6) occ(1,7,10) occ(1,9,3) occ(1,4,7) occ(1,8,1) occ(1,1,2) occ(2,4,2) occ(3,4,8) coverage(80) occ(11,1,5) occ(14,1,7) occ(15,1,9) occ(24,1,4) occ(32,1,8) occ(37,1,6) occ(12,2,9) occ(13,2,7) occ(16,2,5) occ(22,2,2) occ(26,2,6) occ(30,2,10) occ(35,2,8) occ(39,2,4) occ(64,2,3) occ(4,3,4) occ(9,3,6) occ(17,3,10) occ(18,3,3) occ(28,3,8) occ(34,3,9) occ(41,3,2) occ(58,3,7) occ(66,3,1) occ(78,3,5) occ(6,4,6) occ(10,4,10) occ(20,4,1) occ(33,4,9) occ(56,4,5) occ(62,4,4) occ(76,4,3) occ(7,5,5) occ(8,5,8) occ(19,5,9) occ(36,5,10) occ(43,5,1) occ(60,5,6) occ(67,5,7) occ(68,5,2) occ(72,5,4) occ(79,5,3) occ(5,6,7) occ(31,6,10) occ(45,6,3) occ(54,6,4) occ(69,6,9) occ(74,6,2) occ(81,6,5) occ(21,7,8) occ(38,7,9) occ(47,7,1) occ(50,7,5) occ(65,7,6) occ(70,7,3) occ(71,7,7) occ(77,7,2) occ(23,8,10) occ(29,8,9) occ(42,8,8) occ(48,8,7) occ(52,8,3) occ(53,8,5) occ(59,8,2) occ(75,8,4) occ(83,8,6) occ(25,9,8) occ(40,9,10) occ(46,9,9) occ(49,9,2) occ(57,9,4) occ(63,9,5) occ(73,9,6) occ(87,9,7) occ(27,10,10) occ(44,10,7) occ(51,10,4) occ(55,10,6) occ(61,10,3) occ(85,10,5) occ(89,10,9)
Optimization: -80
Answer: 24
occ(1,6,6) occ(1,7,10) occ(1,9,3) occ(1,4,7) occ(1,8,1) occ(1,1,2) occ(2,4,2) occ(3,4,8) coverage(82) occ(11,1,5) occ(14,1,7) occ(15,1,9) occ(24,1,4) occ(32,1,8) occ(37,1,6) occ(9,2,3) occ(12,2,9) occ(13,2,7) occ(16,2,5) occ(22,2,2) occ(26,2,6) occ(30,2,10) occ(35,2,8) occ(39,2,4) occ(4,3,4) occ(5,3,6) occ(17,3,10) occ(18,3,3) occ(28,3,8) occ(34,3,9) occ(41,3,2) occ(70,3,1) occ(74,3,5) occ(6,4,6) occ(7,4,4) occ(10,4,10) occ(20,4,1) occ(33,4,9) occ(72,4,3) occ(8,5,8) occ(19,5,9) occ(36,5,10) occ(43,5,1) occ(52,5,6) occ(58,5,5) occ(67,5,7) occ(68,5,2) occ(76,5,4) occ(79,5,3) occ(31,6,10) occ(45,6,3) occ(50,6,8) occ(56,6,7) occ(62,6,2) occ(66,6,4) occ(69,6,9) occ(80,6,1) occ(81,6,5) occ(21,7,8) occ(38,7,9) occ(47,7,1) occ(54,7,5) occ(60,7,4) occ(65,7,6) occ(71,7,7) occ(77,7,2) occ(78,7,3) occ(23,8,10) occ(29,8,9) occ(42,8,8) occ(48,8,7) occ(53,8,5) occ(59,8,2) occ(64,8,3) occ(75,8,4) occ(83,8,6) occ(25,9,8) occ(40,9,10) occ(46,9,9) occ(49,9,2) occ(57,9,4) occ(63,9,5) occ(73,9,6) occ(87,9,7) occ(27,10,10) occ(44,10,7) occ(51,10,4) occ(55,10,6) occ(61,10,3) occ(85,10,5) occ(89,10,9)
Optimization: -82
Answer: 25
occ(1,6,6) occ(1,7,10) occ(1,9,3) occ(1,4,7) occ(1,8,1) occ(1,1,2) occ(2,4,2) occ(3,4,8) coverage(84) occ(11,1,1) occ(17,1,6) occ(18,1,7) occ(22,1,3) occ(23,1,9) occ(69,1,4) occ(73,1,8) occ(5,2,7) occ(9,2,3) occ(15,2,4) occ(16,2,9) occ(19,2,8) occ(20,2,5) occ(24,2,1) occ(67,2,2) occ(71,2,6) occ(4,3,4) occ(7,3,5) occ(13,3,2) occ(21,3,10) occ(25,3,8) occ(26,3,3) occ(66,3,7) occ(72,3,6) occ(75,3,9) occ(6,4,6) occ(14,4,10) occ(33,4,9) occ(60,4,3) occ(64,4,5) occ(65,4,1) occ(70,4,4) occ(8,5,8) occ(27,5,9) occ(28,5,2) occ(35,5,7) occ(63,5,3) occ(68,5,6) occ(74,5,5) occ(77,5,10) occ(80,5,4) occ(12,6,9) occ(31,6,10) occ(39,6,8) occ(58,6,2) occ(62,6,4) occ(76,6,7) occ(10,7,7) occ(29,7,8) occ(30,7,1) occ(37,7,6) occ(48,7,4) occ(61,7,2) occ(78,7,5) occ(79,7,9) occ(82,7,3) occ(41,8,9) occ(42,8,8) occ(47,8,6) occ(50,8,2) occ(53,8,5) occ(56,8,3) occ(59,8,4) occ(81,8,7) occ(32,9,2) occ(36,9,6) occ(40,9,10) occ(45,9,8) occ(46,9,5) occ(49,9,4) occ(54,9,1) occ(55,9,7) occ(83,9,9) occ(34,10,4) occ(38,10,8) occ(43,10,10) occ(44,10,7) occ(51,10,6) occ(52,10,3) occ(57,10,5)
Optimization: -84
Answer: 26
occ(1,6,6) occ(1,7,10) occ(1,9,3) occ(1,4,7) occ(1,8,1) occ(1,1,2) occ(2,4,2) occ(3,4,8) coverage(85) occ(11,1,1) occ(17,1,6) occ(18,1,7) occ(22,1,3) occ(23,1,9) occ(69,1,4) occ(73,1,8) occ(5,2,7) occ(9,2,3) occ(15,2,4) occ(16,2,9) occ(19,2,8) occ(20,2,5) occ(24,2,1) occ(67,2,2) occ(71,2,6) occ(4,3,4) occ(7,3,5) occ(13,3,2) occ(21,3,10) occ(25,3,8) occ(26,3,3) occ(66,3,7) occ(72,3,6) occ(75,3,9) occ(6,4,6) occ(14,4,10) occ(33,4,9) occ(60,4,3) occ(64,4,5) occ(65,4,1) occ(70,4,4) occ(8,5,8) occ(27,5,9) occ(28,5,2) occ(35,5,7) occ(63,5,3) occ(68,5,6) occ(74,5,5) occ(77,5,10) occ(80,5,4) occ(12,6,9) occ(31,6,10) occ(39,6,8) occ(58,6,2) occ(61,6,5) occ(62,6,4) occ(76,6,7) occ(84,6,1) occ(10,7,7) occ(29,7,8) occ(30,7,1) occ(37,7,6) occ(48,7,4) occ(78,7,5) occ(79,7,9) occ(82,7,3) occ(41,8,9) occ(42,8,8) occ(47,8,6) occ(50,8,2) occ(53,8,5) occ(56,8,3) occ(59,8,4) occ(81,8,7) occ(32,9,2) occ(36,9,6) occ(40,9,10) occ(45,9,8) occ(46,9,5) occ(49,9,4) occ(54,9,1) occ(55,9,7) occ(83,9,9) occ(34,10,4) occ(38,10,8) occ(43,10,10) occ(44,10,7) occ(51,10,6) occ(52,10,3) occ(57,10,5)
Optimization: -85
Answer: 27
occ(1,6,6) occ(1,7,10) occ(1,9,3) occ(1,4,7) occ(1,8,1) occ(1,1,2) occ(2,4,2) occ(3,4,8) coverage(86) occ(11,1,1) occ(16,1,8) occ(17,1,6) occ(20,1,4) occ(23,1,9) occ(79,1,7) occ(83,1,3) occ(5,2,7) occ(9,2,3) occ(15,2,4) occ(18,2,6) occ(19,2,8) occ(22,2,2) occ(77,2,9) occ(81,2,5) occ(85,2,1) occ(4,3,4) occ(7,3,5) occ(13,3,2) occ(14,3,9) occ(21,3,10) occ(25,3,8) occ(26,3,3) occ(66,3,7) occ(72,3,6) occ(6,4,6) occ(24,4,1) occ(33,4,9) occ(60,4,3) occ(64,4,5) occ(70,4,4) occ(75,4,10) occ(8,5,8) occ(12,5,10) occ(27,5,9) occ(28,5,2) occ(35,5,7) occ(63,5,1) occ(67,5,3) occ(68,5,6) occ(74,5,5) occ(80,5,4) occ(31,6,10) occ(39,6,8) occ(58,6,2) occ(61,6,3) occ(62,6,4) occ(69,6,5) occ(73,6,9) occ(76,6,7) occ(84,6,1) occ(10,7,9) occ(29,7,8) occ(30,7,1) occ(37,7,6) occ(48,7,4) occ(65,7,2) occ(71,7,7) occ(78,7,5) occ(82,7,3) occ(41,8,9) occ(42,8,8) occ(47,8,6) occ(50,8,2) occ(53,8,5) occ(56,8,3) occ(59,8,4) occ(32,9,2) occ(36,9,6) occ(40,9,10) occ(45,9,8) occ(46,9,5) occ(49,9,4) occ(54,9,1) occ(55,9,7) occ(34,10,4) occ(38,10,8) occ(43,10,10) occ(44,10,7) occ(51,10,6) occ(52,10,3) occ(57,10,5)
Optimization: -86
Answer: 28
occ(1,6,6) occ(1,7,10) occ(1,9,3) occ(1,4,7) occ(1,8,1) occ(1,1,2) occ(2,4,2) occ(3,4,8) coverage(89) occ(7,1,9) occ(14,1,3) occ(24,1,4) occ(38,1,1) occ(67,1,7) occ(73,1,10) occ(77,1,8) occ(5,2,7) occ(12,2,5) occ(16,2,1) occ(22,2,2) occ(26,2,6) occ(34,2,4) occ(40,2,3) occ(65,2,9) occ(71,2,8) occ(79,2,10) occ(4,3,4) occ(9,3,10) occ(10,3,7) occ(18,3,3) occ(28,3,8) occ(36,3,2) occ(42,3,5) occ(62,3,1) occ(69,3,6) occ(75,3,9) occ(6,4,6) occ(20,4,1) occ(32,4,5) occ(60,4,3) occ(63,4,10) occ(66,4,4) occ(81,4,9) occ(8,5,8) occ(11,5,9) occ(30,5,7) occ(43,5,1) occ(44,5,4) occ(64,5,2) occ(68,5,6) occ(74,5,5) occ(86,5,3) occ(45,6,3) occ(46,6,2) occ(58,6,4) occ(61,6,9) occ(70,6,8) occ(76,6,7) occ(83,6,10) occ(84,6,5) occ(88,6,1) occ(13,7,8) occ(27,7,9) occ(41,7,2) occ(47,7,1) occ(48,7,4) occ(72,7,6) occ(78,7,5) occ(82,7,7) occ(17,8,7) occ(23,8,8) occ(35,8,6) occ(39,8,4) occ(50,8,2) occ(53,8,5) occ(56,8,3) occ(59,8,10) occ(85,8,9) occ(15,9,9) occ(19,9,5) occ(25,9,10) occ(29,9,8) occ(33,9,4) occ(49,9,2) occ(54,9,1) occ(55,9,7) occ(80,9,6) occ(21,10,7) occ(31,10,6) occ(37,10,5) occ(51,10,4) occ(52,10,3) occ(57,10,9) occ(87,10,10)
Optimization: -89
Answer: 29
occ(1,6,6) occ(1,7,10) occ(1,9,3) occ(1,4,7) occ(1,8,1) occ(1,1,2) occ(2,4,2) occ(3,4,8) coverage(90) occ(6,1,3) occ(17,1,6) occ(40,1,8) occ(50,1,1) occ(71,1,7) occ(77,1,4) occ(83,1,9) occ(4,2,1) occ(13,2,7) occ(19,2,8) occ(38,2,10) occ(46,2,4) occ(52,2,3) occ(66,2,2) occ(69,2,9) occ(73,2,5) occ(79,2,6) occ(7,3,9) occ(8,3,4) occ(15,3,5) occ(21,3,6) occ(42,3,7) occ(48,3,2) occ(75,3,3) occ(81,3,8) occ(85,3,10) occ(11,4,6) occ(36,4,9) occ(44,4,5) occ(54,4,4) occ(64,4,3) occ(67,4,10) occ(68,4,1) occ(5,5,10) occ(9,5,8) occ(10,5,3) occ(23,5,7) occ(37,5,6) occ(41,5,4) occ(45,5,2) occ(62,5,1) occ(82,5,5) occ(87,5,9) occ(12,6,1) occ(27,6,10) occ(34,6,8) occ(47,6,4) occ(56,6,5) occ(65,6,9) occ(70,6,2) occ(84,6,3) occ(89,6,7) occ(25,7,8) occ(32,7,6) occ(35,7,7) occ(39,7,5) occ(43,7,3) occ(60,7,2) occ(80,7,4) occ(86,7,1) occ(14,8,2) occ(20,8,7) occ(26,8,6) occ(29,8,9) occ(49,8,5) occ(58,8,4) occ(59,8,8) occ(63,8,10) occ(72,8,3) occ(16,9,4) occ(22,9,9) occ(30,9,7) occ(33,9,8) occ(53,9,6) occ(57,9,10) occ(74,9,1) occ(78,9,5) occ(88,9,2) occ(18,10,6) occ(24,10,7) occ(28,10,5) occ(31,10,10) occ(51,10,4) occ(55,10,8) occ(61,10,9) occ(76,10,3)
Optimization: -90
Answer: 30
occ(1,6,6) occ(1,7,10) occ(1,9,3) occ(1,4,7) occ(1,8,1) occ(1,1,2) occ(2,4,2) occ(3,4,8) coverage(91) occ(30,1,7) occ(35,1,5) occ(49,1,10) occ(55,1,9) occ(64,1,4) occ(69,1,8) occ(70,1,3) occ(81,1,6) occ(29,2,5) occ(32,2,9) occ(33,2,3) occ(51,2,8) occ(57,2,7) occ(62,2,2) occ(67,2,6) occ(68,2,1) occ(71,2,10) occ(79,2,4) occ(27,3,7) occ(28,3,8) occ(37,3,4) occ(47,3,9) occ(53,3,10) occ(66,3,3) occ(72,3,2) occ(77,3,6) occ(83,3,5) occ(87,3,1) occ(31,4,4) occ(34,4,10) occ(59,4,6) occ(60,4,1) occ(65,4,5) occ(73,4,9) occ(85,4,3) occ(25,5,6) occ(26,5,9) occ(36,5,8) occ(39,5,5) occ(45,5,10) occ(56,5,4) occ(63,5,3) occ(74,5,1) occ(75,5,7) occ(89,5,2) occ(4,6,3) occ(5,6,9) occ(15,6,10) occ(24,6,7) occ(43,6,8) occ(52,6,1) occ(58,6,2) occ(61,6,5) occ(78,6,4) occ(6,7,1) occ(13,7,8) occ(22,7,5) occ(23,7,7) occ(38,7,9) occ(41,7,6) occ(54,7,3) occ(76,7,2) occ(7,8,8) occ(11,8,10) occ(14,8,4) occ(17,8,9) occ(20,8,3) occ(44,8,7) occ(50,8,2) occ(80,8,5) occ(86,8,6) occ(8,9,2) occ(12,9,6) occ(18,9,1) occ(21,9,8) occ(40,9,10) occ(48,9,4) occ(82,9,7) occ(90,9,9) occ(9,10,9) occ(10,10,4) occ(16,10,3) occ(19,10,10) occ(42,10,8) occ(46,10,6) occ(84,10,5) occ(88,10,7)
Optimization: -91
Answer: 31
occ(1,6,6) occ(1,7,10) occ(1,9,3) occ(1,4,7) occ(1,8,1) occ(1,1,2) occ(2,4,2) occ(3,4,8) coverage(92) occ(7,1,9) occ(11,1,5) occ(15,1,1) occ(19,1,3) occ(24,1,4) occ(28,1,6) occ(36,1,8) occ(58,1,7) occ(9,2,7) occ(13,2,3) occ(21,2,1) occ(22,2,2) occ(30,2,4) occ(34,2,6) occ(38,2,10) occ(56,2,9) occ(60,2,5) occ(5,3,10) occ(17,3,2) occ(23,3,3) occ(26,3,5) occ(27,3,1) occ(40,3,8) occ(59,3,7) occ(63,3,9) occ(64,3,6) occ(89,3,4) occ(20,4,1) occ(29,4,3) occ(32,4,5) occ(54,4,10) occ(62,4,4) occ(68,4,9) occ(87,4,6) occ(6,5,1) occ(25,5,2) occ(42,5,9) occ(57,5,6) occ(61,5,8) occ(65,5,10) occ(66,5,7) occ(82,5,3) occ(85,5,4) occ(91,5,5) occ(4,6,3) occ(18,6,2) occ(31,6,4) occ(44,6,7) occ(52,6,9) occ(67,6,8) occ(70,6,10) occ(80,6,5) occ(84,6,1) occ(8,7,2) occ(16,7,4) occ(33,7,6) occ(41,7,8) occ(46,7,9) occ(55,7,5) occ(78,7,7) occ(79,7,1) occ(83,7,3) occ(10,8,4) occ(14,8,6) occ(43,8,10) occ(49,8,5) occ(50,8,8) occ(69,8,7) occ(72,8,9) occ(77,8,3) occ(86,8,2) occ(35,9,5) occ(39,9,9) occ(47,9,7) occ(48,9,10) occ(53,9,6) occ(73,9,4) occ(76,9,8) occ(81,9,2) occ(90,9,1) occ(12,10,5) occ(37,10,7) occ(45,10,9) occ(51,10,4) occ(71,10,6) occ(74,10,10) occ(75,10,2) occ(88,10,3)
Optimization: -92
Answer: 32
occ(1,6,6) occ(1,7,10) occ(1,9,3) occ(1,4,7) occ(1,8,1) occ(1,1,2) occ(2,4,2) occ(3,4,8) coverage(93) occ(6,1,3) occ(38,1,5) occ(56,1,6) occ(57,1,8) occ(61,1,4) occ(62,1,7) occ(66,1,9) occ(72,1,10) occ(91,1,1) occ(4,2,1) occ(8,2,5) occ(36,2,7) occ(46,2,4) occ(55,2,10) occ(59,2,6) occ(60,2,9) occ(63,2,2) occ(70,2,8) occ(89,2,3) occ(32,3,4) occ(40,3,6) occ(48,3,2) occ(54,3,5) occ(58,3,7) occ(64,3,8) occ(68,3,10) occ(74,3,9) occ(83,3,3) occ(87,3,1) occ(7,4,10) occ(10,4,4) occ(34,4,6) occ(44,4,5) occ(52,4,3) occ(53,4,9) occ(65,4,1) occ(9,5,8) occ(14,5,3) occ(30,5,5) occ(42,5,7) occ(47,5,9) occ(50,5,1) occ(76,5,10) occ(80,5,6) occ(81,5,4) occ(85,5,2) occ(5,6,9) occ(12,6,5) occ(16,6,1) occ(28,6,3) occ(45,6,7) occ(51,6,10) occ(67,6,2) occ(78,6,8) occ(82,6,4) occ(11,7,7) occ(18,7,3) occ(21,7,6) occ(26,7,1) occ(43,7,9) occ(49,7,8) occ(79,7,5) occ(84,7,2) occ(92,7,4) occ(15,8,8) occ(20,8,5) occ(29,8,7) occ(37,8,9) occ(69,8,3) occ(75,8,2) occ(86,8,4) occ(90,8,6) occ(13,9,6) occ(19,9,7) occ(23,9,5) occ(24,9,2) occ(27,9,9) occ(33,9,8) occ(41,9,10) occ(71,9,1) occ(77,9,4) occ(17,10,9) occ(22,10,4) occ(25,10,7) occ(31,10,6) occ(35,10,10) occ(39,10,8) occ(73,10,3) occ(88,10,5)
Optimization: -93
*** Info : (clingo): INTERRUPTED by signal!
SATISFIABLE

TIME LIMIT   : 1
Models       : 32+
  Optimum    : unknown
Optimization : -93
Calls        : 1
Time         : 300.000s (Solving: 298.54s 1st Model: 0.00s Unsat: 0.00s)
CPU Time     : 300.001s
